fabrik.lp
\ This file was automatically generated by Zimpl
\ param worktime := 150;
\ param material := 160;
\ var hemden integer >= 0;
\ var roecke integer >= 0;
\ var hosen  integer >= 0;
\ var maschine1 integer >= 1000;
\ var maschine2 integer >= 2000;
\ maximize profit : (30* hemden - maschine1) + ((45* roecke) + (60* hosen) - maschine2);
\ subto worktime : 3* hemden + 2* roecke + 1* hosen  <= worktime ;
\ subto material : 1.2* hemden + 0.6*roecke + 1.4*hosen <= material ;
\Problem name: fabrik.zpl
Maximize
 profit:  +30 hemden +45 roecke +60 hosen - maschine1 - maschine2
Subject to
 worktime_1:
  + hosen +2 roecke +3 hemden <= 150
 material_1:
  +1.4 hosen +0.6 roecke +1.2 hemden <= 160
Bounds
 0 <= hemden <= +inf
 0 <= roecke <= +inf
 0 <= hosen <= +inf
 1000 <= maschine1 <= +inf
 2000 <= maschine2 <= +inf
General
 hemden
 roecke
 hosen
 maschine1
 maschine2
End
