fabrik.sol
solution status: optimal solution found
objective value:                     4295.45454545455
roecke                               22.7272727272727 	(obj:45)
hosen                                104.545454545455 	(obj:60)
__ObjOffset@3                                       1 	(obj:-3000)
